61
1 0 8
2 0 4
2 1 5
3 0 5
3 1 60
3 2 16
4 0 50
4 1 19
4 2 29
4 3 25
5 0 51
5 1 1
5 2 55
5 3 36
5 4 61
6 0 1
6 1 42
6 2 60
6 3 50
6 4 15
6 5 63
7 0 17
7 1 42
7 2 13
7 3 64
7 4 55
7 5 27
7 6 51
8 0 22
8 1 49
8 2 46
8 3 5
8 4 58
8 5 60
8 6 12
8 7 17
9 0 8
9 1 46
9 2 29
9 3 37
9 4 13
9 5 10
9 6 20
9 7 54
9 8 20
10 0 45
10 1 36
10 2 19
10 3 46
10 4 62
10 5 48
10 6 31
10 7 65
10 8 53
10 9 17
11 0 22
11 1 11
11 2 55
11 3 62
11 4 15
11 5 37
11 6 49
11 7 55
11 8 3
11 9 54
11 10 42
12 0 65
12 1 51
12 2 24
12 3 3
12 4 28
12 5 29
12 6 18
12 7 11
12 8 30
12 9 56
12 10 12
12 11 36
13 0 10
13 1 58
13 2 55
13 3 25
13 4 44
13 5 9
13 6 24
13 7 13
13 8 41
13 9 14
13 10 26
13 11 12
13 12 50
14 0 60
14 1 43
14 2 66
14 3 41
14 4 8
14 5 34
14 6 30
14 7 66
14 8 14
14 9 47
14 10 26
14 11 19
14 12 11
14 13 18
15 0 63
15 1 66
15 2 51
15 3 23
15 4 44
15 5 24
15 6 50
15 7 16
15 8 24
15 9 14
15 10 23
15 11 22
15 12 51
15 13 7
15 14 65
16 0 12
16 1 8
16 2 14
16 3 1
16 4 12
16 5 22
16 6 11
16 7 32
16 8 57
16 9 36
16 10 23
16 11 46
16 12 12
16 13 1
16 14 66
16 15 53
17 0 47
17 1 44
17 2 12
17 3 48
17 4 41
17 5 59
17 6 34
17 7 11
17 8 38
17 9 19
17 10 17
17 11 44
17 12 17
17 13 28
17 14 7
17 15 41
17 16 4
18 0 60
18 1 45
18 2 5
18 3 56
18 4 23
18 5 55
18 6 29
18 7 20
18 8 53
18 9 65
18 10 40
18 11 1
18 12 6
18 13 14
18 14 8
18 15 15
18 16 56
18 17 57
19 0 5
19 1 12
19 2 15
19 3 61
19 4 33
19 5 9
19 6 46
19 7 14
19 8 51
19 9 56
19 10 24
19 11 20
19 12 39
19 13 56
19 14 41
19 15 60
19 16 48
19 17 54
19 18 8
20 0 46
20 1 22
20 2 9
20 3 40
20 4 4
20 5 28
20 6 64
20 7 37
20 8 31
20 9 16
20 10 58
20 11 18
20 12 62
20 13 16
20 14 51
20 15 38
20 16 10
20 17 64
20 18 19
20 19 2
21 0 15
21 1 23
21 2 30
21 3 60
21 4 64
21 5 43
21 6 60
21 7 57
21 8 14
21 9 39
21 10 1
21 11 5
21 12 42
21 13 15
21 14 54
21 15 39
21 16 10
21 17 32
21 18 39
21 19 54
21 20 38
22 0 35
22 1 29
22 2 43
22 3 34
22 4 25
22 5 66
22 6 35
22 7 19
22 8 30
22 9 43
22 10 23
22 11 40
22 12 56
22 13 28
22 14 18
22 15 15
22 16 46
22 17 33
22 18 44
22 19 55
22 20 59
22 21 20
23 0 46
23 1 52
23 2 49
23 3 13
23 4 32
23 5 33
23 6 49
23 7 36
23 8 38
23 9 54
23 10 22
23 11 43
23 12 30
23 13 17
23 14 21
23 15 41
23 16 11
23 17 19
23 18 16
23 19 24
23 20 12
23 21 62
23 22 12
24 0 16
24 1 21
24 2 24
24 3 32
24 4 63
24 5 10
24 6 12
24 7 25
24 8 59
24 9 23
24 10 46
24 11 54
24 12 54
24 13 55
24 14 28
24 15 38
24 16 51
24 17 39
24 18 18
24 19 51
24 20 35
24 21 46
24 22 43
24 23 10
25 0 54
25 1 56
25 2 10
25 3 58
25 4 31
25 5 21
25 6 32
25 7 43
25 8 63
25 9 27
25 10 3
25 11 29
25 12 3
25 13 26
25 14 7
25 15 4
25 16 34
25 17 2
25 18 46
25 19 34
25 20 15
25 21 54
25 22 29
25 23 40
25 24 62
26 0 30
26 1 3
26 2 33
26 3 44
26 4 46
26 5 16
26 6 14
26 7 32
26 8 60
26 9 20
26 10 57
26 11 4
26 12 35
26 13 28
26 14 39
26 15 24
26 16 5
26 17 44
26 18 25
26 19 14
26 20 12
26 21 14
26 22 64
26 23 52
26 24 11
26 25 6
27 0 48
27 1 14
27 2 66
27 3 45
27 4 24
27 5 38
27 6 27
27 7 42
27 8 33
27 9 30
27 10 58
27 11 1
27 12 46
27 13 34
27 14 37
27 15 54
27 16 31
27 17 46
27 18 25
27 19 9
27 20 15
27 21 21
27 22 61
27 23 41
27 24 26
27 25 57
27 26 50
28 0 10
28 1 61
28 2 30
28 3 28
28 4 36
28 5 5
28 6 7
28 7 10
28 8 7
28 9 13
28 10 29
28 11 5
28 12 9
28 13 58
28 14 27
28 15 35
28 16 37
28 17 36
28 18 4
28 19 39
28 20 46
28 21 37
28 22 38
28 23 66
28 24 30
28 25 30
28 26 2
28 27 21
29 0 36
29 1 37
29 2 46
29 3 44
29 4 53
29 5 26
29 6 42
29 7 28
29 8 17
29 9 38
29 10 4
29 11 64
29 12 51
29 13 65
29 14 49
29 15 19
29 16 36
29 17 40
29 18 28
29 19 42
29 20 29
29 21 9
29 22 54
29 23 11
29 24 14
29 25 20
29 26 56
29 27 59
29 28 66
30 0 38
30 1 22
30 2 15
30 3 42
30 4 48
30 5 61
30 6 32
30 7 46
30 8 14
30 9 13
30 10 37
30 11 22
30 12 33
30 13 22
30 14 63
30 15 11
30 16 61
30 17 33
30 18 53
30 19 5
30 20 25
30 21 6
30 22 38
30 23 28
30 24 13
30 25 22
30 26 42
30 27 7
30 28 65
30 29 63
31 0 45
31 1 29
31 2 9
31 3 63
31 4 63
31 5 59
31 6 20
31 7 35
31 8 41
31 9 14
31 10 24
31 11 62
31 12 55
31 13 66
31 14 9
31 15 37
31 16 4
31 17 29
31 18 21
31 19 49
31 20 11
31 21 24
31 22 19
31 23 61
31 24 64
31 25 53
31 26 29
31 27 18
31 28 19
31 29 60
31 30 55
32 0 55
32 1 61
32 2 49
32 3 42
32 4 54
32 5 62
32 6 31
32 7 4
32 8 44
32 9 8
32 10 55
32 11 50
32 12 61
32 13 33
32 14 61
32 15 35
32 16 5
32 17 41
32 18 47
32 19 24
32 20 55
32 21 30
32 22 56
32 23 45
32 24 48
32 25 30
32 26 43
32 27 29
32 28 45
32 29 7
32 30 17
32 31 46
33 0 15
33 1 58
33 2 33
33 3 27
33 4 19
33 5 38
33 6 57
33 7 59
33 8 53
33 9 24
33 10 34
33 11 4
33 12 52
33 13 65
33 14 33
33 15 22
33 16 8
33 17 66
33 18 24
33 19 61
33 20 50
33 21 3
33 22 64
33 23 63
33 24 50
33 25 29
33 26 5
33 27 26
33 28 20
33 29 41
33 30 6
33 31 61
33 32 64
34 0 16
34 1 13
34 2 20
34 3 34
34 4 61
34 5 18
34 6 38
34 7 8
34 8 65
34 9 60
34 10 29
34 11 61
34 12 41
34 13 6
34 14 34
34 15 12
34 16 31
34 17 20
34 18 21
34 19 24
34 20 25
34 21 31
34 22 16
34 23 7
34 24 57
34 25 37
34 26 56
34 27 54
34 28 41
34 29 3
34 30 6
34 31 18
34 32 2
34 33 30
35 0 36
35 1 44
35 2 37
35 3 56
35 4 41
35 5 45
35 6 33
35 7 42
35 8 23
35 9 58
35 10 24
35 11 22
35 12 14
35 13 16
35 14 61
35 15 14
35 16 5
35 17 45
35 18 55
35 19 47
35 20 21
35 21 63
35 22 6
35 23 15
35 24 39
35 25 10
35 26 66
35 27 39
35 28 54
35 29 66
35 30 16
35 31 26
35 32 29
35 33 12
35 34 19
36 0 63
36 1 63
36 2 53
36 3 14
36 4 40
36 5 18
36 6 36
36 7 45
36 8 29
36 9 30
36 10 8
36 11 48
36 12 60
36 13 50
36 14 14
36 15 26
36 16 61
36 17 19
36 18 54
36 19 36
36 20 7
36 21 22
36 22 51
36 23 30
36 24 30
36 25 34
36 26 60
36 27 50
36 28 53
36 29 15
36 30 11
36 31 65
36 32 33
36 33 52
36 34 21
36 35 61
37 0 18
37 1 39
37 2 34
37 3 18
37 4 28
37 5 64
37 6 43
37 7 28
37 8 36
37 9 49
37 10 10
37 11 32
37 12 32
37 13 25
37 14 57
37 15 39
37 16 25
37 17 34
37 18 60
37 19 24
37 20 54
37 21 11
37 22 2
37 23 1
37 24 36
37 25 55
37 26 36
37 27 23
37 28 11
37 29 25
37 30 53
37 31 49
37 32 61
37 33 19
37 34 18
37 35 55
37 36 31
38 0 65
38 1 3
38 2 38
38 3 63
38 4 61
38 5 50
38 6 51
38 7 13
38 8 51
38 9 13
38 10 18
38 11 49
38 12 7
38 13 62
38 14 31
38 15 41
38 16 11
38 17 57
38 18 57
38 19 48
38 20 43
38 21 26
38 22 45
38 23 47
38 24 49
38 25 62
38 26 56
38 27 64
38 28 51
38 29 37
38 30 58
38 31 8
38 32 64
38 33 11
38 34 33
38 35 58
38 36 40
38 37 34
39 0 60
39 1 42
39 2 24
39 3 8
39 4 7
39 5 42
39 6 27
39 7 35
39 8 50
39 9 57
39 10 66
39 11 42
39 12 21
39 13 3
39 14 18
39 15 16
39 16 45
39 17 19
39 18 37
39 19 48
39 20 19
39 21 12
39 22 42
39 23 43
39 24 34
39 25 39
39 26 27
39 27 50
39 28 6
39 29 19
39 30 13
39 31 37
39 32 21
39 33 20
39 34 31
39 35 28
39 36 58
39 37 34
39 38 51
40 0 4
40 1 9
40 2 54
40 3 10
40 4 48
40 5 22
40 6 5
40 7 26
40 8 24
40 9 14
40 10 43
40 11 55
40 12 52
40 13 50
40 14 4
40 15 29
40 16 35
40 17 15
40 18 5
40 19 44
40 20 52
40 21 37
40 22 43
40 23 3
40 24 55
40 25 1
40 26 3
40 27 50
40 28 42
40 29 25
40 30 13
40 31 26
40 32 53
40 33 22
40 34 26
40 35 49
40 36 50
40 37 39
40 38 34
40 39 30
41 0 64
41 1 7
41 2 33
41 3 49
41 4 45
41 5 25
41 6 66
41 7 35
41 8 22
41 9 40
41 10 2
41 11 43
41 12 47
41 13 17
41 14 14
41 15 13
41 16 28
41 17 20
41 18 15
41 19 59
41 20 25
41 21 17
41 22 4
41 23 12
41 24 16
41 25 37
41 26 26
41 27 30
41 28 3
41 29 19
41 30 29
41 31 36
41 32 39
41 33 58
41 34 48
41 35 28
41 36 9
41 37 31
41 38 46
41 39 49
41 40 32
42 0 14
42 1 25
42 2 46
42 3 47
42 4 29
42 5 18
42 6 11
42 7 58
42 8 45
42 9 6
42 10 25
42 11 39
42 12 46
42 13 24
42 14 27
42 15 23
42 16 25
42 17 50
42 18 14
42 19 49
42 20 61
42 21 46
42 22 4
42 23 21
42 24 42
42 25 46
42 26 45
42 27 23
42 28 22
42 29 21
42 30 18
42 31 5
42 32 19
42 33 61
42 34 18
42 35 2
42 36 3
42 37 31
42 38 48
42 39 25
42 40 32
42 41 64
43 0 21
43 1 53
43 2 21
43 3 35
43 4 39
43 5 58
43 6 28
43 7 58
43 8 65
43 9 17
43 10 4
43 11 5
43 12 40
43 13 4
43 14 47
43 15 37
43 16 58
43 17 19
43 18 4
43 19 56
43 20 25
43 21 6
43 22 39
43 23 32
43 24 54
43 25 15
43 26 29
43 27 4
43 28 49
43 29 10
43 30 51
43 31 42
43 32 15
43 33 30
43 34 57
43 35 28
43 36 13
43 37 42
43 38 17
43 39 58
43 40 39
43 41 25
43 42 8
44 0 39
44 1 47
44 2 58
44 3 37
44 4 35
44 5 41
44 6 62
44 7 19
44 8 24
44 9 15
44 10 48
44 11 9
44 12 18
44 13 33
44 14 31
44 15 18
44 16 14
44 17 55
44 18 43
44 19 6
44 20 36
44 21 53
44 22 11
44 23 3
44 24 43
44 25 35
44 26 50
44 27 3
44 28 59
44 29 33
44 30 46
44 31 9
44 32 58
44 33 38
44 34 14
44 35 31
44 36 6
44 37 40
44 38 39
44 39 63
44 40 20
44 41 42
44 42 41
44 43 65
45 0 12
45 1 63
45 2 54
45 3 14
45 4 19
45 5 18
45 6 59
45 7 11
45 8 5
45 9 43
45 10 66
45 11 17
45 12 53
45 13 25
45 14 66
45 15 30
45 16 22
45 17 34
45 18 53
45 19 40
45 20 23
45 21 64
45 22 14
45 23 26
45 24 27
45 25 23
45 26 11
45 27 9
45 28 48
45 29 57
45 30 13
45 31 4
45 32 65
45 33 11
45 34 32
45 35 48
45 36 5
45 37 47
45 38 46
45 39 55
45 40 61
45 41 9
45 42 49
45 43 30
45 44 49
46 0 59
46 1 1
46 2 22
46 3 13
46 4 44
46 5 41
46 6 12
46 7 35
46 8 58
46 9 64
46 10 44
46 11 31
46 12 1
46 13 27
46 14 54
46 15 43
46 16 26
46 17 61
46 18 57
46 19 45
46 20 9
46 21 9
46 22 58
46 23 10
46 24 63
46 25 2
46 26 46
46 27 17
46 28 12
46 29 16
46 30 54
46 31 61
46 32 22
46 33 40
46 34 38
46 35 21
46 36 62
46 37 41
46 38 34
46 39 21
46 40 26
46 41 56
46 42 58
46 43 32
46 44 10
46 45 19
47 0 41
47 1 19
47 2 47
47 3 37
47 4 23
47 5 52
47 6 51
47 7 10
47 8 7
47 9 6
47 10 52
47 11 14
47 12 64
47 13 8
47 14 62
47 15 39
47 16 42
47 17 43
47 18 58
47 19 5
47 20 55
47 21 44
47 22 4
47 23 12
47 24 1
47 25 20
47 26 26
47 27 48
47 28 36
47 29 6
47 30 35
47 31 11
47 32 42
47 33 21
47 34 7
47 35 31
47 36 38
47 37 38
47 38 38
47 39 62
47 40 65
47 41 53
47 42 47
47 43 16
47 44 13
47 45 39
47 46 45
48 0 33
48 1 66
48 2 22
48 3 23
48 4 30
48 5 22
48 6 43
48 7 18
48 8 54
48 9 42
48 10 1
48 11 29
48 12 20
48 13 65
48 14 44
48 15 57
48 16 8
48 17 15
48 18 15
48 19 26
48 20 60
48 21 42
48 22 23
48 23 31
48 24 14
48 25 3
48 26 50
48 27 47
48 28 5
48 29 10
48 30 9
48 31 35
48 32 35
48 33 46
48 34 54
48 35 3
48 36 52
48 37 44
48 38 22
48 39 9
48 40 31
48 41 44
48 42 15
48 43 31
48 44 23
48 45 4
48 46 41
48 47 41
49 0 18
49 1 48
49 2 34
49 3 51
49 4 20
49 5 21
49 6 51
49 7 38
49 8 14
49 9 33
49 10 21
49 11 8
49 12 59
49 13 32
49 14 60
49 15 17
49 16 25
49 17 55
49 18 40
49 19 32
49 20 27
49 21 36
49 22 52
49 23 18
49 24 52
49 25 30
49 26 12
49 27 38
49 28 1
49 29 63
49 30 41
49 31 53
49 32 65
49 33 19
49 34 3
49 35 38
49 36 32
49 37 63
49 38 10
49 39 1
49 40 4
49 41 4
49 42 66
49 43 21
49 44 26
49 45 38
49 46 65
49 47 3
49 48 12
50 0 52
50 1 14
50 2 16
50 3 18
50 4 40
50 5 21
50 6 14
50 7 28
50 8 20
50 9 65
50 10 58
50 11 9
50 12 62
50 13 64
50 14 48
50 15 14
50 16 42
50 17 18
50 18 2
50 19 4
50 20 10
50 21 42
50 22 41
50 23 2
50 24 51
50 25 48
50 26 34
50 27 6
50 28 22
50 29 42
50 30 19
50 31 51
50 32 58
50 33 26
50 34 44
50 35 11
50 36 10
50 37 52
50 38 7
50 39 21
50 40 7
50 41 48
50 42 12
50 43 29
50 44 15
50 45 50
50 46 54
50 47 48
50 48 59
50 49 37
51 0 4
51 1 39
51 2 42
51 3 39
51 4 55
51 5 51
51 6 43
51 7 11
51 8 41
51 9 35
51 10 61
51 11 43
51 12 23
51 13 63
51 14 11
51 15 27
51 16 45
51 17 2
51 18 65
51 19 58
51 20 37
51 21 62
51 22 18
51 23 63
51 24 58
51 25 60
51 26 41
51 27 19
51 28 23
51 29 31
51 30 19
51 31 29
51 32 4
51 33 65
51 34 65
51 35 55
51 36 22
51 37 44
51 38 41
51 39 65
51 40 60
51 41 43
51 42 37
51 43 41
51 44 26
51 45 55
51 46 17
51 47 26
51 48 40
51 49 17
51 50 12
52 0 24
52 1 23
52 2 41
52 3 27
52 4 50
52 5 41
52 6 65
52 7 31
52 8 16
52 9 18
52 10 50
52 11 64
52 12 60
52 13 44
52 14 44
52 15 28
52 16 61
52 17 65
52 18 3
52 19 12
52 20 6
52 21 59
52 22 2
52 23 22
52 24 11
52 25 7
52 26 2
52 27 4
52 28 34
52 29 58
52 30 61
52 31 53
52 32 27
52 33 18
52 34 53
52 35 8
52 36 14
52 37 11
52 38 61
52 39 19
52 40 66
52 41 63
52 42 40
52 43 55
52 44 46
52 45 40
52 46 60
52 47 40
52 48 30
52 49 31
52 50 36
52 51 17
53 0 65
53 1 2
53 2 9
53 3 61
53 4 17
53 5 33
53 6 1
53 7 40
53 8 25
53 9 58
53 10 6
53 11 51
53 12 56
53 13 60
53 14 21
53 15 56
53 16 36
53 17 11
53 18 1
53 19 42
53 20 64
53 21 2
53 22 65
53 23 14
53 24 36
53 25 24
53 26 12
53 27 27
53 28 20
53 29 12
53 30 18
53 31 64
53 32 66
53 33 37
53 34 43
53 35 29
53 36 34
53 37 48
53 38 24
53 39 52
53 40 13
53 41 45
53 42 8
53 43 41
53 44 28
53 45 26
53 46 46
53 47 36
53 48 33
53 49 60
53 50 61
53 51 57
53 52 51
54 0 6
54 1 10
54 2 50
54 3 33
54 4 2
54 5 18
54 6 44
54 7 62
54 8 61
54 9 15
54 10 24
54 11 38
54 12 19
54 13 51
54 14 11
54 15 28
54 16 52
54 17 2
54 18 11
54 19 12
54 20 58
54 21 59
54 22 14
54 23 11
54 24 11
54 25 28
54 26 38
54 27 38
54 28 7
54 29 59
54 30 58
54 31 40
54 32 34
54 33 58
54 34 9
54 35 14
54 36 8
54 37 49
54 38 1
54 39 48
54 40 49
54 41 32
54 42 17
54 43 38
54 44 19
54 45 28
54 46 25
54 47 47
54 48 25
54 49 46
54 50 47
54 51 48
54 52 20
54 53 10
55 0 42
55 1 38
55 2 54
55 3 16
55 4 27
55 5 20
55 6 46
55 7 7
55 8 64
55 9 33
55 10 18
55 11 49
55 12 56
55 13 11
55 14 17
55 15 6
55 16 42
55 17 10
55 18 48
55 19 32
55 20 65
55 21 34
55 22 53
55 23 38
55 24 4
55 25 34
55 26 44
55 27 61
55 28 44
55 29 48
55 30 56
55 31 49
55 32 57
55 33 61
55 34 55
55 35 26
55 36 29
55 37 34
55 38 42
55 39 61
55 40 38
55 41 38
55 42 42
55 43 28
55 44 2
55 45 66
55 46 3
55 47 5
55 48 4
55 49 7
55 50 46
55 51 23
55 52 13
55 53 61
55 54 61
56 0 36
56 1 49
56 2 50
56 3 2
56 4 37
56 5 16
56 6 58
56 7 16
56 8 59
56 9 43
56 10 40
56 11 24
56 12 62
56 13 49
56 14 47
56 15 40
56 16 11
56 17 1
56 18 24
56 19 2
56 20 64
56 21 12
56 22 51
56 23 52
56 24 65
56 25 60
56 26 16
56 27 4
56 28 11
56 29 42
56 30 35
56 31 29
56 32 15
56 33 19
56 34 25
56 35 57
56 36 64
56 37 29
56 38 63
56 39 54
56 40 36
56 41 14
56 42 20
56 43 2
56 44 2
56 45 61
56 46 15
56 47 61
56 48 27
56 49 24
56 50 3
56 51 53
56 52 9
56 53 65
56 54 18
56 55 20
57 0 62
57 1 47
57 2 13
57 3 41
57 4 15
57 5 58
57 6 41
57 7 36
57 8 29
57 9 42
57 10 44
57 11 25
57 12 18
57 13 55
57 14 3
57 15 22
57 16 38
57 17 5
57 18 27
57 19 47
57 20 13
57 21 53
57 22 38
57 23 11
57 24 15
57 25 8
57 26 51
57 27 63
57 28 35
57 29 7
57 30 17
57 31 46
57 32 11
57 33 45
57 34 55
57 35 18
57 36 23
57 37 14
57 38 18
57 39 46
57 40 10
57 41 40
57 42 29
57 43 24
57 44 48
57 45 22
57 46 60
57 47 46
57 48 7
57 49 56
57 50 10
57 51 19
57 52 39
57 53 16
57 54 49
57 55 5
57 56 38
58 0 7
58 1 60
58 2 64
58 3 4
58 4 60
58 5 49
58 6 9
58 7 16
58 8 32
58 9 41
58 10 54
58 11 8
58 12 20
58 13 44
58 14 25
58 15 51
58 16 43
58 17 29
58 18 61
58 19 61
58 20 64
58 21 11
58 22 50
58 23 50
58 24 62
58 25 1
58 26 29
58 27 22
58 28 63
58 29 27
58 30 21
58 31 62
58 32 10
58 33 25
58 34 40
58 35 6
58 36 21
58 37 22
58 38 43
58 39 28
58 40 3
58 41 57
58 42 53
58 43 15
58 44 4
58 45 22
58 46 56
58 47 32
58 48 45
58 49 37
58 50 25
58 51 6
58 52 48
58 53 44
58 54 11
58 55 66
58 56 30
58 57 61
59 0 32
59 1 49
59 2 15
59 3 19
59 4 12
59 5 45
59 6 60
59 7 57
59 8 40
59 9 53
59 10 33
59 11 28
59 12 58
59 13 62
59 14 19
59 15 62
59 16 13
59 17 45
59 18 26
59 19 31
59 20 61
59 21 28
59 22 54
59 23 7
59 24 60
59 25 26
59 26 15
59 27 47
59 28 1
59 29 23
59 30 58
59 31 38
59 32 3
59 33 40
59 34 50
59 35 26
59 36 33
59 37 23
59 38 44
59 39 9
59 40 38
59 41 27
59 42 51
59 43 37
59 44 59
59 45 13
59 46 62
59 47 44
59 48 17
59 49 10
59 50 63
59 51 15
59 52 54
59 53 5
59 54 13
59 55 9
59 56 28
59 57 12
59 58 39
60 0 25
60 1 51
60 2 47
60 3 58
60 4 46
60 5 62
60 6 35
60 7 27
60 8 19
60 9 18
60 10 59
60 11 7
60 12 20
60 13 46
60 14 31
60 15 16
60 16 42
60 17 62
60 18 8
60 19 23
60 20 34
60 21 19
60 22 15
60 23 65
60 24 61
60 25 56
60 26 32
60 27 47
60 28 44
60 29 22
60 30 21
60 31 12
60 32 50
60 33 62
60 34 40
60 35 8
60 36 22
60 37 59
60 38 9
60 39 64
60 40 28
60 41 39
60 42 2
60 43 2
60 44 11
60 45 33
60 46 13
60 47 48
60 48 18
60 49 15
60 50 30
60 51 12
60 52 62
60 53 26
60 54 44
60 55 5
60 56 28
60 57 18
60 58 35
60 59 55
